(set-option :print-success true)
(set-option :produce-models true)
(set-logic ALL)
(declare-sort Unspecified 0)
(declare-sort Unit 0)
(declare-const loaded_value_0 (_ BitVec 64))
(declare-const clif_load_active_1 Bool)
(declare-const clif_load_size_bits_2 Int)
(declare-const clif_load_addr_3 (_ BitVec 64))
(declare-const clif_store_active_4 Bool)
(declare-const clif_store_size_bits_5 Int)
(declare-const clif_store_addr_6 (_ BitVec 64))
(declare-const clif_store_value_7 (_ BitVec 64))
(declare-const clif_trap_8 Bool)
(declare-const isa_load_active_9 Bool)
(declare-const isa_load_size_bits_10 Int)
(declare-const isa_load_addr_11 (_ BitVec 64))
(declare-const isa_store_active_12 Bool)
(declare-const isa_store_size_bits_13 Int)
(declare-const isa_store_addr_14 (_ BitVec 64))
(declare-const isa_store_value_15 (_ BitVec 64))
(declare-const b0_16 (_ BitVec 1))
(declare-const b3_some_17 Bool)
(declare-const b3_inner_0_aligned_18 Bool)
(declare-const b3_inner_0_trapcode_19 (_ BitVec 4))
(declare-const b3_inner_1_20 (_ BitVec 8))
(declare-const b3_inner_2_21 (_ BitVec 64))
(declare-const b3_inner_3_22 (_ BitVec 32))
(declare-const e23 Bool)
(assert (! (= e23 true) :named expr23))
(declare-const e24 Int)
(assert (! (= e24 8) :named expr24))
(declare-const e25 Bool)
(assert (! (= e25 (= clif_store_size_bits_5 e24)) :named expr25))
(declare-const e26 Int)
(assert (! (= e26 64) :named expr26))
(declare-const e27 (_ BitVec 64))
(assert (! (= e27 ((_ sign_extend 32) b3_inner_3_22)) :named expr27))
(declare-const e28 (_ BitVec 64))
(assert (! (= e28 (bvadd b3_inner_2_21 e27)) :named expr28))
(declare-const e29 Bool)
(assert (! (= e29 (= clif_store_addr_6 e28)) :named expr29))
(declare-const e30 (_ BitVec 8))
(assert (! (= e30 ((_ extract 7 0) clif_store_value_7)) :named expr30))
(declare-const e31 Bool)
(assert (! (= e31 (= e30 b3_inner_1_20)) :named expr31))
(declare-const e32 Bool)
(assert (! (= e32 (and e29 e31)) :named expr32))
(declare-const e33 Bool)
(assert (! (= e33 (and e25 e32)) :named expr33))
(declare-const e34 Bool)
(assert (! (= e34 (and clif_store_active_4 e33)) :named expr34))
(declare-const e35 (_ BitVec 1))
(assert (! (= e35 #b1) :named expr35))
(declare-const e36 Bool)
(assert (! (= e36 (= b0_16 e35)) :named expr36))
(declare-const e37 Bool)
(assert (! (= e37 (and e34 e36)) :named expr37))
(declare-const e38 Bool)
(assert (! (= e38 (= b3_some_17 e23)) :named expr38))
(declare-const e39 Bool)
(assert (! (= e39 (=> e23 e37)) :named expr39))
(declare-const b4_0_aligned_40 Bool)
(declare-const b4_0_trapcode_41 (_ BitVec 4))
(declare-const b4_1_42 (_ BitVec 8))
(declare-const b4_2_43 (_ BitVec 64))
(declare-const b4_3_44 (_ BitVec 32))
(declare-const e45 Bool)
(assert (! (= e45 (= b4_0_aligned_40 b3_inner_0_aligned_18)) :named expr45))
(declare-const e46 Bool)
(assert (! (= e46 (= b4_0_trapcode_41 b3_inner_0_trapcode_19)) :named expr46))
(declare-const e47 Bool)
(assert (! (= e47 (and e45 e46)) :named expr47))
(declare-const e48 Bool)
(assert (! (= e48 (= b4_1_42 b3_inner_1_20)) :named expr48))
(declare-const e49 Bool)
(assert (! (= e49 (= b4_2_43 b3_inner_2_21)) :named expr49))
(declare-const e50 Bool)
(assert (! (= e50 (= b4_3_44 b3_inner_3_22)) :named expr50))
(declare-const e51 Bool)
(assert (! (= e51 (and e47 e48)) :named expr51))
(declare-const e52 Bool)
(assert (! (= e52 (and e51 e49)) :named expr52))
(declare-const e53 Bool)
(assert (! (= e53 (and e52 e50)) :named expr53))
(declare-const e54 Bool)
(assert (! (= e54 (=> b3_some_17 e53)) :named expr54))
(declare-const b5_55 (_ BitVec 8))
(declare-const e56 Bool)
(assert (! (= e56 (= b5_55 b4_1_42)) :named expr56))
(declare-const b6_bits_57 Int)
(declare-const e58 Int)
(assert (! (= e58 8) :named expr58))
(declare-const e59 Bool)
(assert (! (= e59 (= b6_bits_57 e58)) :named expr59))
(declare-const b7_some_60 Bool)
(declare-const b7_inner_bits_61 Int)
(declare-const e62 Bool)
(assert (! (= e62 (= b6_bits_57 b7_inner_bits_61)) :named expr62))
(declare-const e63 Bool)
(assert (! (= e63 (= b7_some_60 e23)) :named expr63))
(declare-const e64 Bool)
(assert (! (= e64 (=> e23 e62)) :named expr64))
(declare-const b8_aligned_65 Bool)
(declare-const b8_trapcode_66 (_ BitVec 4))
(declare-const e67 Bool)
(assert (! (= e67 (= b8_aligned_65 b4_0_aligned_40)) :named expr67))
(declare-const e68 Bool)
(assert (! (= e68 (= b8_trapcode_66 b4_0_trapcode_41)) :named expr68))
(declare-const e69 Bool)
(assert (! (= e69 (and e67 e68)) :named expr69))
(declare-const b9_70 (_ BitVec 64))
(declare-const e71 Bool)
(assert (! (= e71 (= b9_70 b4_2_43)) :named expr71))
(declare-const b10_72 (_ BitVec 32))
(declare-const e73 Bool)
(assert (! (= e73 (= b10_72 b4_3_44)) :named expr73))
(declare-const b12_74 (_ BitVec 64))
(declare-const b50_addr_75 (_ BitVec 64))
(declare-const b50_flags_aligned_76 Bool)
(declare-const b50_flags_trapcode_77 (_ BitVec 4))
(declare-const b48_78 (_ BitVec 32))
(declare-const e79 Bool)
(assert (! (= e79 (= b48_78 b10_72)) :named expr79))
(declare-const b46_80 (_ BitVec 64))
(declare-const b34_81 (_ BitVec 64))
(declare-const b33_0_bits_82 Int)
(declare-const b33_1_83 (_ BitVec 64))
(declare-const b33_2_84 (_ BitVec 64))
(declare-const b32_some_85 Bool)
(declare-const b32_inner_0_bits_86 Int)
(declare-const b32_inner_1_87 (_ BitVec 64))
(declare-const b32_inner_2_88 (_ BitVec 64))
(declare-const b31_89 (_ BitVec 64))
(declare-const b30_some_90 Bool)
(declare-const b30_inner_91 (_ BitVec 64))
(declare-const e92 Bool)
(assert (! (= e92 (= b9_70 b30_inner_91)) :named expr92))
(declare-const e93 Bool)
(assert (! (= e93 (= b30_some_90 e23)) :named expr93))
(declare-const e94 Bool)
(assert (! (= e94 (=> e23 e92)) :named expr94))
(declare-const e95 Bool)
(assert (! (= e95 (= b31_89 b30_inner_91)) :named expr95))
(declare-const e96 Bool)
(assert (! (= e96 (=> b30_some_90 e95)) :named expr96))
(declare-const e97 (_ BitVec 64))
(assert (! (= e97 (bvadd b32_inner_1_87 b32_inner_2_88)) :named expr97))
(declare-const e98 Bool)
(assert (! (= e98 (= b31_89 e97)) :named expr98))
(declare-const e99 Bool)
(assert (! (= e99 (= b32_some_85 e23)) :named expr99))
(declare-const e100 Bool)
(assert (! (= e100 (=> e23 e98)) :named expr100))
(declare-const e101 Bool)
(assert (! (= e101 (= b33_0_bits_82 b32_inner_0_bits_86)) :named expr101))
(declare-const e102 Bool)
(assert (! (= e102 (= b33_1_83 b32_inner_1_87)) :named expr102))
(declare-const e103 Bool)
(assert (! (= e103 (= b33_2_84 b32_inner_2_88)) :named expr103))
(declare-const e104 Bool)
(assert (! (= e104 (and e101 e102)) :named expr104))
(declare-const e105 Bool)
(assert (! (= e105 (and e104 e103)) :named expr105))
(declare-const e106 Bool)
(assert (! (= e106 (=> b32_some_85 e105)) :named expr106))
(declare-const e107 Bool)
(assert (! (= e107 (= b34_81 b33_1_83)) :named expr107))
(declare-const e108 (_ BitVec 64))
(assert (! (= e108 b34_81) :named expr108))
(declare-const e109 Bool)
(assert (! (= e109 (= b46_80 e108)) :named expr109))
(declare-const b47_110 (_ BitVec 64))
(declare-const b35_111 (_ BitVec 64))
(declare-const e112 Bool)
(assert (! (= e112 (= b35_111 b33_2_84)) :named expr112))
(declare-const e113 (_ BitVec 64))
(assert (! (= e113 b35_111) :named expr113))
(declare-const e114 Bool)
(assert (! (= e114 (= b47_110 e113)) :named expr114))
(declare-const b49_115 (_ BitVec 8))
(declare-const e116 (_ BitVec 8))
(assert (! (= e116 #b00000000) :named expr116))
(declare-const e117 Bool)
(assert (! (= e117 (= b49_115 e116)) :named expr117))
(declare-const e118 (_ BitVec 64))
(assert (! (= e118 ((_ sign_extend 32) b48_78)) :named expr118))
(declare-const e119 (_ BitVec 64))
(assert (! (= e119 (bvadd b46_80 e118)) :named expr119))
(declare-const e120 (_ BitVec 64))
(assert (! (= e120 ((_ zero_extend 56) b49_115)) :named expr120))
(declare-const e121 (_ BitVec 64))
(assert (! (= e121 (bvshl b47_110 e120)) :named expr121))
(declare-const e122 (_ BitVec 64))
(assert (! (= e122 (bvadd e119 e121)) :named expr122))
(declare-const e123 Bool)
(assert (! (= e123 (= b50_addr_75 e122)) :named expr123))
(declare-const e124 Bool)
(assert (! (= e124 (= b50_flags_aligned_76 b8_aligned_65)) :named expr124))
(declare-const e125 Bool)
(assert (! (= e125 (= b50_flags_trapcode_77 b8_trapcode_66)) :named expr125))
(declare-const e126 Bool)
(assert (! (= e126 (and e124 e125)) :named expr126))
(declare-const e127 Bool)
(assert (! (= e127 (= b12_74 b50_addr_75)) :named expr127))
(declare-const b13_128 (_ BitVec 64))
(declare-const e129 (_ BitVec 64))
(declare-const $conv_to_padding0 (_ BitVec 56))
(assert (! (= e129 (concat $conv_to_padding0 b5_55)) :named expr129))
(declare-const e130 Bool)
(assert (! (= e130 (= b13_128 e129)) :named expr130))
(declare-const b14_bits_131 Int)
(declare-const e132 Bool)
(assert (! (= e132 (= b14_bits_131 b7_inner_bits_61)) :named expr132))
(declare-const e133 Bool)
(assert (! (= e133 (=> b7_some_60 e132)) :named expr133))
(declare-const b17_some_134 Bool)
(declare-const b17_inner_135 (_ BitVec 1))
(declare-const b20_136 (_ BitVec 1))
(declare-const e137 Bool)
(assert (! (= e137 (= b20_136 e35)) :named expr137))
(declare-const e138 Bool)
(assert (! (= e138 (= b20_136 b17_inner_135)) :named expr138))
(declare-const b19_139 (_ BitVec 1))
(declare-const b26_discriminant_140 Int)
(declare-const b26_Inst_inst_141 (_ BitVec 1))
(declare-const b26_Inst2_inst1_142 (_ BitVec 1))
(declare-const b26_Inst2_inst2_143 (_ BitVec 1))
(declare-const b26_Inst3_inst1_144 (_ BitVec 1))
(declare-const b26_Inst3_inst2_145 (_ BitVec 1))
(declare-const b26_Inst3_inst3_146 (_ BitVec 1))
(declare-const e147 Int)
(assert (! (= e147 0) :named expr147))
(declare-const e148 Int)
(assert (! (= e148 3) :named expr148))
(declare-const e149 Bool)
(assert (! (= e149 (<= e147 b26_discriminant_140)) :named expr149))
(declare-const e150 Bool)
(assert (! (= e150 (< b26_discriminant_140 e148)) :named expr150))
(declare-const e151 Bool)
(assert (! (= e151 (and e149 e150)) :named expr151))
(declare-const b25_152 (_ BitVec 1))
(declare-const b24_discriminant_153 Int)
(declare-const e154 Int)
(assert (! (= e154 4) :named expr154))
(declare-const e155 Bool)
(assert (! (= e155 (<= e147 b24_discriminant_153)) :named expr155))
(declare-const e156 Bool)
(assert (! (= e156 (< b24_discriminant_153 e154)) :named expr156))
(declare-const e157 Bool)
(assert (! (= e157 (and e155 e156)) :named expr157))
(declare-const e158 Int)
(assert (! (= e158 8) :named expr158))
(declare-const e159 Bool)
(assert (! (= e159 (= b14_bits_131 e158)) :named expr159))
(declare-const e160 Bool)
(assert (! (= e160 (<= e147 e147)) :named expr160))
(declare-const e161 Bool)
(assert (! (= e161 (< e147 e154)) :named expr161))
(declare-const e162 Bool)
(assert (! (= e162 (and e160 e161)) :named expr162))
(declare-const e163 Int)
(assert (! (= e163 16) :named expr163))
(declare-const e164 Bool)
(assert (! (= e164 (= b14_bits_131 e163)) :named expr164))
(declare-const e165 Int)
(assert (! (= e165 1) :named expr165))
(declare-const e166 Bool)
(assert (! (= e166 (<= e147 e165)) :named expr166))
(declare-const e167 Bool)
(assert (! (= e167 (< e165 e154)) :named expr167))
(declare-const e168 Bool)
(assert (! (= e168 (and e166 e167)) :named expr168))
(declare-const e169 Int)
(assert (! (= e169 32) :named expr169))
(declare-const e170 Bool)
(assert (! (= e170 (= b14_bits_131 e169)) :named expr170))
(declare-const e171 Int)
(assert (! (= e171 2) :named expr171))
(declare-const e172 Bool)
(assert (! (= e172 (<= e147 e171)) :named expr172))
(declare-const e173 Bool)
(assert (! (= e173 (< e171 e154)) :named expr173))
(declare-const e174 Bool)
(assert (! (= e174 (and e172 e173)) :named expr174))
(declare-const e175 Bool)
(assert (! (= e175 (= b14_bits_131 e26)) :named expr175))
(declare-const e176 Bool)
(assert (! (= e176 (<= e147 e148)) :named expr176))
(declare-const e177 Bool)
(assert (! (= e177 (< e148 e154)) :named expr177))
(declare-const e178 Bool)
(assert (! (= e178 (and e176 e177)) :named expr178))
(declare-const undef_179 Int)
(declare-const e180 Int)
(assert (! (= e180 (ite e175 e148 undef_179)) :named expr180))
(declare-const e181 Int)
(assert (! (= e181 (ite e170 e171 e180)) :named expr181))
(declare-const e182 Int)
(assert (! (= e182 (ite e164 e165 e181)) :named expr182))
(declare-const e183 Int)
(assert (! (= e183 (ite e159 e147 e182)) :named expr183))
(declare-const e184 Bool)
(assert (! (= e184 (= b24_discriminant_153 e183)) :named expr184))
(declare-const e185 Bool)
(assert (! (= e185 (= b24_discriminant_153 e147)) :named expr185))
(declare-const e186 Bool)
(assert (! (= e186 (=> e185 e23)) :named expr186))
(declare-const e187 Bool)
(assert (! (= e187 (= b24_discriminant_153 e165)) :named expr187))
(declare-const e188 Bool)
(assert (! (= e188 (=> e187 e23)) :named expr188))
(declare-const e189 Bool)
(assert (! (= e189 (= b24_discriminant_153 e171)) :named expr189))
(declare-const e190 Bool)
(assert (! (= e190 (=> e189 e23)) :named expr190))
(declare-const e191 Bool)
(assert (! (= e191 (= b24_discriminant_153 e148)) :named expr191))
(declare-const e192 Bool)
(assert (! (= e192 (=> e191 e23)) :named expr192))
(declare-const e193 Bool)
(assert (! (= e193 (and e184 e186)) :named expr193))
(declare-const e194 Bool)
(assert (! (= e194 (and e193 e188)) :named expr194))
(declare-const e195 Bool)
(assert (! (= e195 (and e194 e190)) :named expr195))
(declare-const e196 Bool)
(assert (! (= e196 (and e195 e192)) :named expr196))
(declare-const e197 Bool)
(assert (! (= e197 (= isa_store_active_12 e23)) :named expr197))
(declare-const e198 Bool)
(assert (! (= e198 (and e185 e186)) :named expr198))
(declare-const e199 Bool)
(assert (! (= e199 (and e198 e188)) :named expr199))
(declare-const e200 Bool)
(assert (! (= e200 (and e199 e190)) :named expr200))
(declare-const e201 Bool)
(assert (! (= e201 (and e200 e192)) :named expr201))
(declare-const e202 Bool)
(assert (! (= e202 (and e187 e186)) :named expr202))
(declare-const e203 Bool)
(assert (! (= e203 (and e202 e188)) :named expr203))
(declare-const e204 Bool)
(assert (! (= e204 (and e203 e190)) :named expr204))
(declare-const e205 Bool)
(assert (! (= e205 (and e204 e192)) :named expr205))
(declare-const e206 Bool)
(assert (! (= e206 (and e189 e186)) :named expr206))
(declare-const e207 Bool)
(assert (! (= e207 (and e206 e188)) :named expr207))
(declare-const e208 Bool)
(assert (! (= e208 (and e207 e190)) :named expr208))
(declare-const e209 Bool)
(assert (! (= e209 (and e208 e192)) :named expr209))
(declare-const e210 Bool)
(assert (! (= e210 (and e191 e186)) :named expr210))
(declare-const e211 Bool)
(assert (! (= e211 (and e210 e188)) :named expr211))
(declare-const e212 Bool)
(assert (! (= e212 (and e211 e190)) :named expr212))
(declare-const e213 Bool)
(assert (! (= e213 (and e212 e192)) :named expr213))
(declare-const undef_214 Int)
(declare-const e215 Int)
(assert (! (= e215 (ite e213 e26 undef_214)) :named expr215))
(declare-const e216 Int)
(assert (! (= e216 (ite e209 e169 e215)) :named expr216))
(declare-const e217 Int)
(assert (! (= e217 (ite e205 e163 e216)) :named expr217))
(declare-const e218 Int)
(assert (! (= e218 (ite e201 e158 e217)) :named expr218))
(declare-const e219 Bool)
(assert (! (= e219 (= isa_store_size_bits_13 e218)) :named expr219))
(declare-const e220 Bool)
(assert (! (= e220 (= isa_store_addr_14 b12_74)) :named expr220))
(declare-const e221 Bool)
(assert (! (= e221 (= isa_store_value_15 b13_128)) :named expr221))
(declare-const undef_Inst2_inst1_222 (_ BitVec 1))
(declare-const undef_Inst2_inst2_223 (_ BitVec 1))
(declare-const undef_Inst3_inst1_224 (_ BitVec 1))
(declare-const undef_Inst3_inst2_225 (_ BitVec 1))
(declare-const undef_Inst3_inst3_226 (_ BitVec 1))
(declare-const e227 Bool)
(assert (! (= e227 (< e147 e148)) :named expr227))
(declare-const e228 Bool)
(assert (! (= e228 (and e160 e227)) :named expr228))
(declare-const e229 Bool)
(assert (! (= e229 (= b26_discriminant_140 e147)) :named expr229))
(declare-const e230 Bool)
(assert (! (= e230 (= b26_Inst_inst_141 b25_152)) :named expr230))
(declare-const e231 Bool)
(assert (! (= e231 (=> e229 e230)) :named expr231))
(declare-const e232 Bool)
(assert (! (= e232 (= b26_discriminant_140 e165)) :named expr232))
(declare-const e233 Bool)
(assert (! (= e233 (= b26_Inst2_inst1_142 undef_Inst2_inst1_222)) :named expr233))
(declare-const e234 Bool)
(assert (! (= e234 (= b26_Inst2_inst2_143 undef_Inst2_inst2_223)) :named expr234))
(declare-const e235 Bool)
(assert (! (= e235 (and e233 e234)) :named expr235))
(declare-const e236 Bool)
(assert (! (= e236 (=> e232 e235)) :named expr236))
(declare-const e237 Bool)
(assert (! (= e237 (= b26_discriminant_140 e171)) :named expr237))
(declare-const e238 Bool)
(assert (! (= e238 (= b26_Inst3_inst1_144 undef_Inst3_inst1_224)) :named expr238))
(declare-const e239 Bool)
(assert (! (= e239 (= b26_Inst3_inst2_145 undef_Inst3_inst2_225)) :named expr239))
(declare-const e240 Bool)
(assert (! (= e240 (= b26_Inst3_inst3_146 undef_Inst3_inst3_226)) :named expr240))
(declare-const e241 Bool)
(assert (! (= e241 (and e238 e239)) :named expr241))
(declare-const e242 Bool)
(assert (! (= e242 (and e241 e240)) :named expr242))
(declare-const e243 Bool)
(assert (! (= e243 (=> e237 e242)) :named expr243))
(declare-const e244 Bool)
(assert (! (= e244 (and e229 e231)) :named expr244))
(declare-const e245 Bool)
(assert (! (= e245 (and e244 e236)) :named expr245))
(declare-const e246 Bool)
(assert (! (= e246 (and e245 e243)) :named expr246))
(declare-const e247 Bool)
(assert (! (= e247 (= b17_inner_135 b0_16)) :named expr247))
(declare-const e248 Bool)
(assert (! (= e248 (= b17_some_134 e23)) :named expr248))
(declare-const e249 Bool)
(assert (! (= e249 (=> e23 e247)) :named expr249))
(declare-const e250 Bool)
(assert (! (= e250 (not clif_load_active_1)) :named expr250))
(declare-const e251 Bool)
(assert (! (= e251 (not clif_store_active_4)) :named expr251))
(declare-const e252 Bool)
(assert (! (= e252 (= clif_store_size_bits_5 e165)) :named expr252))
(declare-const e253 Bool)
(assert (! (= e253 (and e251 e252)) :named expr253))
(declare-const e254 Bool)
(assert (! (= e254 (not e23)) :named expr254))
(declare-const e255 Bool)
(assert (! (= e255 (=> e254 e253)) :named expr255))
(declare-const e256 Bool)
(assert (! (= e256 (not clif_trap_8)) :named expr256))
(declare-const e257 Bool)
(assert (! (= e257 (not isa_load_active_9)) :named expr257))
(declare-const e258 Bool)
(assert (! (= e258 (not isa_store_active_12)) :named expr258))
(declare-const e259 Bool)
(assert (! (= e259 (= isa_store_size_bits_13 e165)) :named expr259))
(declare-const e260 Bool)
(assert (! (= e260 (and e258 e259)) :named expr260))
(declare-const e261 Bool)
(assert (! (= e261 (=> e254 e260)) :named expr261))
(push)
(assert (and e38 e39 e54 e56 e59 e63 e64 e69 e71 e73 e79 e93 e94 e96 e99 e100 e106 e107 e109 e112 e114 e117 e123 e126 e127 e130 e133 e137 b17_some_134 e138 e151 e157 e162 e168 e174 e178 e196 e162 e168 e174 e178 e197 e219 e220 e221 e228 e246 e23 e248 b3_some_17 b7_some_60 b30_some_90 b32_some_85 e23 e250 e255 e256 e257 e261))
(check-sat)
(pop)
(push)
(assert (not (=> (and e38 e39 e54 e56 e59 e63 e64 e69 e71 e73 e79 e93 e94 e96 e99 e100 e106 e107 e109 e112 e114 e117 e123 e126 e127 e130 e133 e137 b17_some_134 e138 e151 e157 e162 e168 e174 e178 e196 e162 e168 e174 e178 e197 e219 e220 e221 e228 e246 e23 e248 b3_some_17 b7_some_60 b30_some_90 b32_some_85 e23 e250 e255 e256 e257 e261) e249)))
(check-sat)
(pop)
(exit)
